Minimize
  - 18 y_0 - 18 y_1 - 26 y_2 - 24 y_3 - 21 y_4 - 14 y_5 - 3 y_6 - 20 y_7
   - 23 y_8 - 26 y_9 - 27 y_10 - 8 y_11 - y_12 - 14 y_13 - 11 y_14 - 6 y_16
   - 21 y_17 - 12 y_18 - 20 y_19 + 64 x_0_6 + 68 x_0_12 + 51 x_0_13
   + 43 x_0_14 + 20 x_0_17 + 30 x_0_19 + 27 x_1_5 + 92 x_1_9 + 41 x_1_11
   + 74 x_1_15 + 62 x_1_16 + 46 x_1_17 + 29 x_2_4 + 98 x_2_6 + 36 x_2_8
   + 17 x_2_10 + 102 x_2_12 + 78 x_2_13 + 72 x_2_14 + 105 x_2_15
   + 41 x_2_19 + 74 x_3_5 + 43 x_3_7 + 79 x_3_8 + 15 x_4_7 + 67 x_4_11
   + 82 x_4_12 + 59 x_4_16 + 65 x_5_10 + 64 x_5_13 + 33 x_5_17 + 24 x_5_19
   + 98 x_6_9 + 36 x_6_14 + 71 x_6_19 + 77 x_7_12 + 52 x_7_14 + 80 x_7_15
   + 65 x_8_9 + 89 x_8_12 + 73 x_8_16 + 13 x_8_19 + 88 x_9_11 + 59 x_9_13
   + 78 x_9_16 + 49 x_9_17 + 56 x_9_18 + 80 x_10_14 + 37 x_10_17
   + 62 x_10_18 + 54 x_10_19 + 13 x_11_14 + 50 x_11_19 + 5 x_12_15
   + 22 x_13_18 + 48 x_15_18 + 16 x_17_19 + 313 Constant
Subject To
 c_0: y_3 = 1
 c_1_0: y_0 + y_7 >= 1
 c_1_1: y_1 >= 1
 c_1_2: y_2 >= 1
 c_1_3: y_3 >= 1
 c_1_4: y_4 >= 1
 c_1_5: y_5 >= 1
 c_1_6: y_6 + y_12 + y_15 >= 1
 c_1_7: y_0 + y_7 >= 1
 c_1_8: y_8 >= 1
 c_1_9: y_9 >= 1
 c_1_10: y_10 >= 1
 c_1_11: y_11 >= 1
 c_1_12: y_6 + y_12 + y_15 >= 1
 c_1_13: y_13 >= 1
 c_1_14: y_14 >= 1
 c_1_15: y_6 + y_12 + y_15 >= 1
 c_1_16: y_16 >= 1
 c_1_17: y_17 >= 1
 c_1_18: y_18 >= 1
 c_1_19: y_19 >= 1
 c_2_0: - 2 y_0 + x_0_6 + x_0_12 + x_0_13 + x_0_14 + x_0_17 + x_0_19 = 0
 c_2_1: - 2 y_1 + x_1_5 + x_1_9 + x_1_11 + x_1_15 + x_1_16 + x_1_17 = 0
 c_2_2: - 2 y_2 + x_2_4 + x_2_6 + x_2_8 + x_2_10 + x_2_12 + x_2_13 + x_2_14
   + x_2_15 + x_2_19 = 0
 c_2_3: - 2 y_3 + x_3_5 + x_3_7 + x_3_8 = 0
 c_2_4: - 2 y_4 + x_2_4 + x_4_7 + x_4_11 + x_4_12 + x_4_16 = 0
 c_2_5: - 2 y_5 + x_1_5 + x_3_5 + x_5_10 + x_5_13 + x_5_17 + x_5_19 = 0
 c_2_6: - 2 y_6 + x_0_6 + x_2_6 + x_6_9 + x_6_14 + x_6_19 = 0
 c_2_7: - 2 y_7 + x_3_7 + x_4_7 + x_7_12 + x_7_14 + x_7_15 = 0
 c_2_8: - 2 y_8 + x_2_8 + x_3_8 + x_8_9 + x_8_12 + x_8_16 + x_8_19 = 0
 c_2_9: - 2 y_9 + x_1_9 + x_6_9 + x_8_9 + x_9_11 + x_9_13 + x_9_16 + x_9_17
   + x_9_18 = 0
 c_2_10: - 2 y_10 + x_2_10 + x_5_10 + x_10_14 + x_10_17 + x_10_18 + x_10_19
   = 0
 c_2_11: - 2 y_11 + x_1_11 + x_4_11 + x_9_11 + x_11_14 + x_11_19 = 0
 c_2_12: - 2 y_12 + x_0_12 + x_2_12 + x_4_12 + x_7_12 + x_8_12 + x_12_15
   = 0
 c_2_13: - 2 y_13 + x_0_13 + x_2_13 + x_5_13 + x_9_13 + x_13_18 = 0
 c_2_14: - 2 y_14 + x_0_14 + x_2_14 + x_6_14 + x_7_14 + x_10_14 + x_11_14
   = 0
 c_2_15: - 2 y_15 + x_1_15 + x_2_15 + x_7_15 + x_12_15 + x_15_18 = 0
 c_2_16: - 2 y_16 + x_1_16 + x_4_16 + x_8_16 + x_9_16 = 0
 c_2_17: - 2 y_17 + x_0_17 + x_1_17 + x_5_17 + x_9_17 + x_10_17 + x_17_19
   = 0
 c_2_18: - 2 y_18 + x_9_18 + x_10_18 + x_13_18 + x_15_18 = 0
 c_2_19: - 2 y_19 + x_0_19 + x_2_19 + x_5_19 + x_6_19 + x_8_19 + x_10_19
   + x_11_19 + x_17_19 = 0
Bounds
 Constant = 1
Binaries
 y_0 y_1 y_2 y_3 y_4 y_5 y_6 y_7 y_8 y_9 y_10 y_11 y_12 y_13 y_14 y_15 y_16
 y_17 y_18 y_19 x_0_6 x_0_12 x_0_13 x_0_14 x_0_17 x_0_19 x_1_5 x_1_9 x_1_11
 x_1_15 x_1_16 x_1_17 x_2_4 x_2_6 x_2_8 x_2_10 x_2_12 x_2_13 x_2_14 x_2_15
 x_2_19 x_3_5 x_3_7 x_3_8 x_4_7 x_4_11 x_4_12 x_4_16 x_5_10 x_5_13 x_5_17
 x_5_19 x_6_9 x_6_14 x_6_19 x_7_12 x_7_14 x_7_15 x_8_9 x_8_12 x_8_16 x_8_19
 x_9_11 x_9_13 x_9_16 x_9_17 x_9_18 x_10_14 x_10_17 x_10_18 x_10_19 x_11_14
 x_11_19 x_12_15 x_13_18 x_15_18 x_17_19
End
